(set-info :smt-lib-version 2.6)
(set-logic QF_BV)
(set-info :source |
 Patrice Godefroid, SAGE (systematic dynamic test generation)
 For more information: http://research.microsoft.com/en-us/um/people/pg/public_psfiles/ndss2008.pdf
|)
(set-info :category "industrial")
(set-info :status sat)
(declare-fun T4_10524 () (_ BitVec 32))
(declare-fun T4_1782 () (_ BitVec 32))
(declare-fun T1_10524 () (_ BitVec 8))
(declare-fun T1_10525 () (_ BitVec 8))
(declare-fun T1_10526 () (_ BitVec 8))
(declare-fun T1_10527 () (_ BitVec 8))
(declare-fun T1_1782 () (_ BitVec 8))
(declare-fun T1_1783 () (_ BitVec 8))
(declare-fun T1_1784 () (_ BitVec 8))
(declare-fun T1_1785 () (_ BitVec 8))
(assert (let ((?v_8 (bvult (_ bv0 32) T4_10524)) (?v_7 (bvsub T4_10524 (_ bv817 32))) (?v_6 (bvsdiv (_ bv0 32) T4_10524)) (?v_5 (bvadd T4_10524 (_ bv143259118 32))) (?v_4 (bvsub T4_10524 (_ bv800 32))) (?v_3 (bvsub (_ bv0 32) ((_ zero_extend 24) (ite (bvult T4_10524 (_ bv0 32)) (_ bv1 8) (_ bv0 8)))))) (let ((?v_2 (bvule ?v_3 (_ bv0 32))) (?v_1 (bvashr T4_10524 ((_ zero_extend 24) (_ bv5 8)))) (?v_0 (bvashr ?v_4 ((_ zero_extend 24) (_ bv2 8))))) (and true (= T4_1782 (bvor (bvshl (bvor (bvshl (bvor (bvshl ((_ zero_extend 24) T1_1785) (_ bv8 32)) ((_ zero_extend 24) T1_1784)) (_ bv8 32)) ((_ zero_extend 24) T1_1783)) (_ bv8 32)) ((_ zero_extend 24) T1_1782))) (= T4_10524 (bvor (bvshl (bvor (bvshl (bvor (bvshl ((_ zero_extend 24) T1_10527) (_ bv8 32)) ((_ zero_extend 24) T1_10526)) (_ bv8 32)) ((_ zero_extend 24) T1_10525)) (_ bv8 32)) ((_ zero_extend 24) T1_10524))) (bvslt (_ bv4294967295 32) ?v_7) (= (bvsub ?v_0 (_ bv4 32)) (_ bv0 32)) (not (= (bvsub ?v_0 (_ bv3 32)) (_ bv0 32))) (= (bvsub ?v_1 (_ bv25 32)) (_ bv0 32)) (not (= (bvsub ?v_1 (_ bv24 32)) (_ bv0 32))) ?v_2 ?v_2 (bvule (_ bv0 32) ?v_3) (bvule (_ bv4 32) ?v_4) (not (= (bvsub T4_10524 (_ bv816 32)) (_ bv0 32))) (not (= (bvsub T4_10524 (_ bv803 32)) (_ bv0 32))) (bvult (bvsub T4_10524 (_ bv634 32)) (_ bv258 32)) (bvule ?v_5 (_ bv143260009 32)) (bvult (_ bv143259933 32) ?v_5) (bvule ?v_6 (_ bv100 32)) (bvule ?v_6 (_ bv0 32)) (not (= T4_1782 (_ bv4294967295 32))) (bvule (_ bv32 32) T4_10524) (= (bvsub T4_10524 ?v_7) T4_10524) (bvule (_ bv258 32) T4_10524) ?v_8 (bvule T4_10524 (_ bv2048 32)) (not (= (_ bv0 32) T4_10524)) (bvule (_ bv0 32) T4_10524) ?v_8 (= T4_1782 T4_10524) (not (= T4_10524 (_ bv0 32)))))))
(check-sat)
(exit)
